30
1 0 1
2 0 2
2 1 2
3 0 11
3 1 10
3 2 5
4 0 2
4 1 2
4 2 3
4 3 11
5 0 10
5 1 6
5 2 6
5 3 7
5 4 7
6 0 5
6 1 4
6 2 10
6 3 8
6 4 6
6 5 7
7 0 4
7 1 9
7 2 9
7 3 3
7 4 1
7 5 7
7 6 5
8 0 8
8 1 11
8 2 3
8 3 4
8 4 9
8 5 11
8 6 11
8 7 1
9 0 6
9 1 7
9 2 10
9 3 6
9 4 7
9 5 6
9 6 1
9 7 9
9 8 1
10 0 11
10 1 6
10 2 10
10 3 8
10 4 10
10 5 11
10 6 6
10 7 9
10 8 10
10 9 2
11 0 1
11 1 5
11 2 8
11 3 4
11 4 9
11 5 4
11 6 2
11 7 5
11 8 8
11 9 4
11 10 11
12 0 6
12 1 5
12 2 11
12 3 7
12 4 2
12 5 7
12 6 9
12 7 6
12 8 8
12 9 7
12 10 2
12 11 6
13 0 2
13 1 9
13 2 11
13 3 5
13 4 6
13 5 8
13 6 6
13 7 10
13 8 4
13 9 4
13 10 9
13 11 5
13 12 2
14 0 7
14 1 3
14 2 1
14 3 1
14 4 1
14 5 3
14 6 8
14 7 2
14 8 3
14 9 6
14 10 7
14 11 3
14 12 10
14 13 3
15 0 11
15 1 10
15 2 3
15 3 11
15 4 7
15 5 5
15 6 8
15 7 4
15 8 7
15 9 1
15 10 2
15 11 7
15 12 8
15 13 7
15 14 4
16 0 6
16 1 4
16 2 8
16 3 1
16 4 8
16 5 11
16 6 3
16 7 6
16 8 5
16 9 2
16 10 3
16 11 6
16 12 8
16 13 9
16 14 9
16 15 7
17 0 10
17 1 6
17 2 5
17 3 4
17 4 2
17 5 7
17 6 11
17 7 7
17 8 2
17 9 3
17 10 6
17 11 2
17 12 11
17 13 5
17 14 10
17 15 7
17 16 5
18 0 1
18 1 11
18 2 3
18 3 10
18 4 9
18 5 9
18 6 10
18 7 3
18 8 1
18 9 5
18 10 3
18 11 1
18 12 5
18 13 6
18 14 10
18 15 11
18 16 2
18 17 10
19 0 1
19 1 6
19 2 8
19 3 6
19 4 11
19 5 11
19 6 1
19 7 2
19 8 4
19 9 8
19 10 11
19 11 1
19 12 3
19 13 7
19 14 4
19 15 11
19 16 1
19 17 8
19 18 2
20 0 7
20 1 10
20 2 2
20 3 1
20 4 6
20 5 4
20 6 7
20 7 9
20 8 2
20 9 10
20 10 5
20 11 9
20 12 7
20 13 8
20 14 7
20 15 1
20 16 7
20 17 1
20 18 6
20 19 1
21 0 9
21 1 5
21 2 4
21 3 4
21 4 1
21 5 5
21 6 11
21 7 10
21 8 7
21 9 6
21 10 6
21 11 7
21 12 7
21 13 1
21 14 3
21 15 8
21 16 2
21 17 2
21 18 6
21 19 6
21 20 6
22 0 11
22 1 7
22 2 1
22 3 3
22 4 10
22 5 8
22 6 4
22 7 2
22 8 1
22 9 3
22 10 8
22 11 6
22 12 2
22 13 9
22 14 6
22 15 4
22 16 3
22 17 11
22 18 7
22 19 2
22 20 10
22 21 9
23 0 10
23 1 2
23 2 7
23 3 9
23 4 9
23 5 5
23 6 5
23 7 11
23 8 10
23 9 10
23 10 1
23 11 3
23 12 1
23 13 4
23 14 11
23 15 11
23 16 4
23 17 5
23 18 11
23 19 1
23 20 7
23 21 7
23 22 9
24 0 8
24 1 11
24 2 4
24 3 2
24 4 2
24 5 10
24 6 9
24 7 1
24 8 8
24 9 8
24 10 10
24 11 7
24 12 4
24 13 3
24 14 4
24 15 6
24 16 3
24 17 7
24 18 8
24 19 4
24 20 5
24 21 7
24 22 3
24 23 11
25 0 6
25 1 8
25 2 1
25 3 5
25 4 10
25 5 4
25 6 11
25 7 5
25 8 7
25 9 7
25 10 4
25 11 8
25 12 3
25 13 9
25 14 7
25 15 1
25 16 7
25 17 6
25 18 2
25 19 1
25 20 9
25 21 8
25 22 10
25 23 3
25 24 5
26 0 4
26 1 6
26 2 10
26 3 11
26 4 5
26 5 5
26 6 9
26 7 9
26 8 5
26 9 6
26 10 9
26 11 5
26 12 2
26 13 7
26 14 5
26 15 11
26 16 10
26 17 4
26 18 2
26 19 2
26 20 8
26 21 10
26 22 1
26 23 2
26 24 11
26 25 1
27 0 3
27 1 6
27 2 2
27 3 2
27 4 7
27 5 9
27 6 7
27 7 4
27 8 5
27 9 9
27 10 3
27 11 4
27 12 5
27 13 5
27 14 9
27 15 1
27 16 6
27 17 7
27 18 3
27 19 10
27 20 2
27 21 5
27 22 1
27 23 2
27 24 4
27 25 1
27 26 5
28 0 11
28 1 9
28 2 7
28 3 7
28 4 7
28 5 8
28 6 9
28 7 7
28 8 9
28 9 6
28 10 5
28 11 3
28 12 2
28 13 10
28 14 5
28 15 10
28 16 2
28 17 11
28 18 9
28 19 7
28 20 1
28 21 4
28 22 7
28 23 9
28 24 5
28 25 6
28 26 11
28 27 6
29 0 7
29 1 1
29 2 10
29 3 3
29 4 1
29 5 3
29 6 5
29 7 8
29 8 9
29 9 7
29 10 7
29 11 10
29 12 7
29 13 2
29 14 5
29 15 10
29 16 3
29 17 3
29 18 9
29 19 9
29 20 11
29 21 2
29 22 8
29 23 5
29 24 9
29 25 1
29 26 1
29 27 6
29 28 6
